FilesMath464/S23/Software/AMPL/OilRef.dat.txt
# Data file for oil refinery problem (Problem 1.16 from BT-ILO Pages 37-38)

set Products := gasoline heatingoil;
set Crudes := A B;
param n_Proc := 3;

param SellPrice :=
gasoline   38
heatingoil 33;
 
param CrudeProcess: 1    2   3 :=
A		    3	 1   5
B		    5	 1   3 ;

param ProdProcess:  1    2   3 :=
gasoline	    4	 1   3
heatingoil	    3	 1   4 ;

param Cost := 
1  51
2  11
3  40;

param CrudeReserves :=
A     8000000
B     5000000;
